param NumStages := 4 ;

param NumResources := 2 ;

param FixedCost :=
1    1    4503.11643877
1    2    1488.77848974
;

param MarginalCost :=
1    1    264.176773447
1    2    668.867976646
;

param Demand :=
1    87.1196767839
;

